NAME : gaussian_random186.7322.tour
COMMENT : Length = 7322
COMMENT : Found by LKH [Keld Helsgaun] Sun Jul  7 18:06:25 2024
TYPE : TOUR
DIMENSION : 186
TOUR_SECTION
1
19
111
95
39
162
29
107
30
35
86
125
63
140
77
102
67
76
54
127
98
119
142
14
64
166
11
156
124
84
83
138
169
24
120
40
38
113
115
36
59
149
9
100
56
135
23
133
152
146
181
70
16
155
68
116
73
82
89
185
79
22
129
34
7
5
99
170
78
31
92
52
153
177
105
176
32
160
180
123
50
108
182
45
41
118
161
128
33
43
88
101
46
81
168
97
148
150
57
69
137
154
18
8
131
175
126
25
27
44
145
157
37
2
3
61
103
66
183
112
165
94
13
151
144
10
114
87
4
106
15
75
167
80
186
60
163
21
58
51
136
71
28
6
42
62
110
72
130
93
174
179
109
53
159
132
65
26
90
104
139
20
74
49
134
172
178
17
143
48
12
122
164
173
158
141
117
184
55
171
147
91
96
47
121
85
-1
EOF
